File : Instances/p71
Use 157 s

25889

0 0 1 0 1 0 1 0 0 0 0 0 0 1 0 0 0 1 1 1 1 1 0 1 1 1 0 0 1 0 
18 19 21 24 2 6 21 28 18 28 4 28 13 13 28 18 13 20 24 24 18 21 23 24 23 18 24 19 4 2 19 19 4 21 18 6 20 20 24 21 18 20 6 4 13 19 13 21 19 17 24 24 2 21 20 6 25 20 18 25 4 2 25 20 13 25 2 17 19 25 18 6 19 20 23 23 20 23 20 24 23 17 20 25 4 13 19 2 24 25 28 6 25 25 2 13 28 6 17 28 17 21 25 18 4 24 4 24 18 13 19 4 18 6 6 20 28 25 17 20 19 25 17 19 4 21 2 28 19 17 28 24 25 20 23 20 13 13 28 20 6 18 28 25 25 2 24 21 18 25 24 17 23 17 13 28 2 21 13 13 13 24 23 2 23 17 23 4 13 21 13 20 19 20 4 2 24 20 4 20 2 21 2 19 6 20 28 23 17 21 2 21 6 4 25 6 18 21 23 19 
